networks/zoo_164_3994/zoo_164_3994-lower.txt
Number of groups: 81
Flow 1: {1 76 0} {76 3 0} {3 85 0} 
Flow 2: {76 4 0} {4 86 0} 
Flow 3: {77 6 0} {6 88 0} 
Flow 3: {76 77 0} Flow 4: {77 10 0} {10 92 0} 
Flow 5: {77 13 0} {13 95 0} 
Flow 6: {77 16 0} {16 98 0} 
Flow 7: {77 18 0} {18 100 0} 
Flow 8: {77 19 0} {19 101 0} 
Flow 9: {77 20 0} {20 102 0} 
Flow 10: {77 21 0} {21 103 0} 
Flow 11: {77 25 0} {25 107 0} 
Flow 12: {76 75 0} {75 29 0} {29 111 0} 
Flow 13: {77 30 0} {30 112 0} 
Flow 14: {77 31 0} {31 113 0} 
Flow 15: {77 32 0} {32 114 0} 
Flow 16: {77 33 0} {33 115 0} 
Flow 17: {77 35 0} {35 117 0} 
Flow 18: {77 36 0} {36 118 0} 
Flow 19: {77 37 0} {37 119 0} 
Flow 20: {77 73 0} {73 39 0} {39 121 0} 
Flow 21: {77 45 0} {45 41 0} {41 123 0} 
Flow 22: {45 127 0} 
Flow 23: {77 47 0} {47 129 0} 
Flow 24: {75 52 0} {52 134 0} 
Flow 25: {75 58 0} {58 140 0} 
Flow 26: {77 60 0} {60 142 0} 
Flow 27: {75 61 0} {61 143 0} 
Flow 28: {77 62 0} {62 144 0} 
Flow 29: {77 63 0} {63 145 0} 
Flow 30: {75 68 0} {68 150 0} 
Flow 31: {77 69 0} {69 151 0} 
Flow 32: {77 70 0} {70 152 0} 
Flow 33: {76 71 0} {71 153 0} 
Flow 34: {73 155 0} 
Flow 35: {75 157 0} 
Flow 36: {76 158 0} 
Flow 37: {77 159 0} 
Flow 38: {75 80 0} {80 162 0} 
Flow 39: {75 81 0} {81 163 0} 
Flow 40: {76 82 0} {82 164 0} 
Flow 41: {2 76 0} Flow 43: {77 5 0} {5 87 0} 
Flow 45: {76 7 0} {7 89 0} 
Flow 46: {77 8 0} {8 90 0} 
Flow 48: {77 11 0} {11 93 0} 
Flow 55: {77 22 0} {22 104 0} 
Flow 56: {77 23 0} {23 105 0} 
Flow 58: {77 26 0} {26 108 0} 
Flow 59: {77 28 0} {28 110 0} 
Flow 65: {77 34 0} {34 116 0} 
Flow 71: {77 43 0} {43 125 0} 
Flow 74: {77 50 0} {50 132 0} 
Flow 75: {77 51 0} {51 133 0} 
Flow 77: {77 53 0} {53 135 0} 
Flow 78: {77 54 0} {54 136 0} 
Flow 79: {77 55 0} {55 137 0} 
Flow 80: {77 57 0} {57 139 0} 
Flow 86: {77 64 0} {64 146 0} 
Flow 87: {77 66 0} {66 148 0} 
Flow 88: {77 67 0} {67 149 0} 
Flow 94: {77 74 0} {74 156 0} 
Flow 101: {3 76 0} Flow 109: {77 14 0} {14 96 0} 
Flow 110: {77 15 0} {15 97 0} 
Flow 133: {77 44 0} {44 126 0} 
Flow 136: {77 49 0} {49 131 0} 
Flow 156: {76 72 0} {72 154 0} 
Flow 162: {75 78 0} {78 160 0} 
Flow 166: {4 76 0} Flow 172: {5 77 0} {77 76 0} Flow 190: {77 75 0} Flow 231: {6 77 0} Flow 236: {7 76 0} Flow 301: {8 77 0} Flow 357: {9 77 0} Flow 409: {10 77 0} Flow 474: {11 77 0} Flow 515: {12 75 0} {75 76 0} Flow 519: {75 77 0} Flow 568: {13 77 0} Flow 574: {14 77 0} Flow 619: {15 77 0} Flow 622: {16 77 0} Flow 665: {17 77 0} Flow 725: {18 77 0} Flow 782: {19 77 0} Flow 841: {20 77 0} Flow 905: {21 77 0} Flow 940: {22 77 0} Flow 959: {23 77 0} Flow 1024: {24 77 0} Flow 1071: {25 77 0} Flow 1077: {26 77 0} Flow 1110: {27 77 0} Flow 1171: {28 77 0} Flow 1232: {29 75 0} Flow 1238: {30 77 0} Flow 1244: {31 77 0} Flow 1291: {32 77 0} Flow 1307: {33 77 0} Flow 1354: {34 77 0} Flow 1405: {35 77 0} Flow 1425: {77 27 0} {27 109 0} 
Flow 1436: {35 40 0} {40 122 0} 
Flow 1472: {36 77 0} Flow 1530: {37 77 0} Flow 1531: {38 50 0} {50 77 0} Flow 1597: {39 73 0} {73 77 0} Flow 1662: {40 35 0} Flow 1667: {41 45 0} {45 77 0} Flow 1731: {42 77 0} Flow 1773: {43 77 0} Flow 1832: {44 77 0} Flow 1958: {46 77 0} Flow 1977: {47 77 0} Flow 2041: {48 77 0} Flow 2107: {49 77 0} Flow 2208: {51 77 0} Flow 2253: {76 1 0} {1 83 0} 
Flow 2253: {52 75 0} Flow 2254: {76 2 0} {2 84 0} 
Flow 2261: {77 9 0} {9 91 0} 
Flow 2264: {75 12 0} {12 94 0} 
Flow 2269: {77 17 0} {17 99 0} 
Flow 2276: {77 24 0} {24 106 0} 
Flow 2290: {50 38 0} {38 120 0} 
Flow 2294: {77 42 0} {42 124 0} 
Flow 2298: {77 46 0} {46 128 0} 
Flow 2300: {77 48 0} {48 130 0} 
Flow 2307: {77 56 0} {56 138 0} 
Flow 2310: {75 59 0} {59 141 0} 
Flow 2316: {77 65 0} {65 147 0} 
Flow 2333: {53 77 0} Flow 2398: {54 77 0} Flow 2454: {55 77 0} Flow 2518: {56 77 0} Flow 2578: {57 77 0} Flow 2643: {58 75 0} Flow 2648: {59 75 0} Flow 2713: {60 77 0} Flow 2719: {61 75 0} Flow 2784: {62 77 0} Flow 2848: {63 77 0} Flow 2912: {64 77 0} Flow 2969: {65 77 0} Flow 3030: {66 77 0} Flow 3094: {67 77 0} Flow 3167: {68 75 0} Flow 3242: {69 77 0} Flow 3253: {70 77 0} Flow 3292: {71 76 0} Flow 3297: {72 76 0} Flow 3429: {74 77 0} Flow 3688: {78 75 0} Flow 3752: {79 75 0} Flow 3809: {80 75 0} Flow 3867: {81 75 0} Flow 3931: {82 76 0} Time taken running everything: 1 seconds
