networks/zoo_164_3994/zoo_164_3994-lower.sol
<?xml version = "1.0" encoding="UTF-8" standalone="yes"?>
<CPLEXSolution version="1.2">
 <header
   problemName="networks/zoo_164_3994/zoo_164_3994-lower.lp"
   solutionName="incumbent"
   solutionIndex="-1"
   objectiveValue="88"
   solutionTypeValue="3"
   solutionTypeString="primal"
   solutionStatusValue="101"
   solutionStatusString="integer optimal solution"
   solutionMethodString="mip"
   primalFeasible="1"
   dualFeasible="1"
   MIPNodes="0"
   MIPIterations="16"
   writeLevel="3"/>
 <quality
   epInt="1.0000000000000001e-05"
   epRHS="9.9999999999999995e-07"
   maxIntInfeas="0"
   maxPrimalInfeas="0"
   maxX="1"
   maxSlack="1"/>
 <variables>
  <variable name="Y(40,82)" index="6438" value="1"/>
  <variable name="Y(98,80)" index="15890" value="1"/>
  <variable name="Y(156,72)" index="25336" value="1"/>
  <variable name="Y(171,4)" index="27713" value="1"/>
  <variable name="Y(188,26)" index="30506" value="1"/>
  <variable name="Y(231,6)" index="37495" value="1"/>
  <variable name="Y(255,28)" index="41429" value="1"/>
  <variable name="Y(330,50)" index="53676" value="1"/>
  <variable name="Y(389,55)" index="63298" value="1"/>
  <variable name="Y(448,53)" index="72913" value="1"/>
  <variable name="Y(491,35)" index="79904" value="1"/>
  <variable name="Y(552,61)" index="89873" value="1"/>
  <variable name="Y(568,13)" index="92433" value="1"/>
  <variable name="Y(610,70)" index="99336" value="1"/>
  <variable name="Y(619,15)" index="100748" value="1"/>
  <variable name="Y(655,69)" index="106670" value="1"/>
  <variable name="Y(712,17)" index="115909" value="1"/>
  <variable name="Y(766,63)" index="124757" value="1"/>
  <variable name="Y(827,66)" index="134703" value="1"/>
  <variable name="Y(863,32)" index="140537" value="1"/>
  <variable name="Y(923,47)" index="150332" value="1"/>
  <variable name="Y(944,31)" index="153739" value="1"/>
  <variable name="Y(1016,74)" index="165518" value="1"/>
  <variable name="Y(1032,19)" index="168071" value="1"/>
  <variable name="Y(1071,45)" index="174454" value="1"/>
  <variable name="Y(1085,21)" index="176712" value="1"/>
  <variable name="Y(1130,30)" index="184056" value="1"/>
  <variable name="Y(1178,11)" index="191861" value="1"/>
  <variable name="Y(1234,68)" index="201046" value="1"/>
  <variable name="Y(1241,30)" index="202149" value="1"/>
  <variable name="Y(1272,54)" index="207226" value="1"/>
  <variable name="Y(1292,25)" index="210457" value="1"/>
  <variable name="Y(1324,34)" index="215682" value="1"/>
  <variable name="Y(1378,43)" index="224493" value="1"/>
  <variable name="Y(1509,57)" index="245860" value="1"/>
  <variable name="Y(1530,77)" index="249303" value="1"/>
  <variable name="Y(1532,4)" index="249556" value="1"/>
  <variable name="Y(1653,73)" index="269348" value="1"/>
  <variable name="Y(1664,35)" index="271103" value="1"/>
  <variable name="Y(1682,22)" index="274024" value="1"/>
  <variable name="Y(1751,37)" index="285286" value="1"/>
  <variable name="Y(1819,67)" index="296400" value="1"/>
  <variable name="Y(1874,62)" index="305360" value="1"/>
  <variable name="Y(1964,36)" index="320004" value="1"/>
  <variable name="Y(2011,49)" index="327678" value="1"/>
  <variable name="Y(2050,14)" index="334000" value="1"/>
  <variable name="Y(2112,13)" index="344105" value="1"/>
  <variable name="Y(2212,10)" index="360402" value="1"/>
  <variable name="Y(2310,59)" index="376425" value="1"/>
  <variable name="Y(2377,60)" index="387347" value="1"/>
  <variable name="Y(2429,51)" index="395814" value="1"/>
  <variable name="Y(2470,23)" index="402469" value="1"/>
  <variable name="Y(2541,33)" index="414052" value="1"/>
  <variable name="Y(2611,44)" index="425473" value="1"/>
  <variable name="Y(2645,75)" index="431046" value="1"/>
  <variable name="Y(2657,15)" index="432942" value="1"/>
  <variable name="Y(2714,52)" index="442270" value="1"/>
  <variable name="Y(2723,7)" index="443692" value="1"/>
  <variable name="Y(2786,5)" index="453959" value="1"/>
  <variable name="Y(2858,16)" index="465706" value="1"/>
  <variable name="Y(2916,8)" index="475152" value="1"/>
  <variable name="Y(3015,64)" index="491345" value="1"/>
  <variable name="Y(3059,39)" index="498492" value="1"/>
  <variable name="Y(3129,40)" index="509903" value="1"/>
  <variable name="Y(3151,65)" index="513514" value="1"/>
  <variable name="Y(3177,12)" index="517699" value="1"/>
  <variable name="Y(3242,18)" index="528300" value="1"/>
  <variable name="Y(3255,6)" index="530407" value="1"/>
  <variable name="Y(3295,76)" index="536997" value="1"/>
  <variable name="Y(3352,71)" index="546283" value="1"/>
  <variable name="Y(3382,27)" index="551129" value="1"/>
  <variable name="Y(3430,20)" index="558946" value="1"/>
  <variable name="Y(3485,38)" index="567929" value="1"/>
  <variable name="Y(3488,41)" index="568421" value="1"/>
  <variable name="Y(3528,1)" index="574901" value="1"/>
  <variable name="Y(3529,2)" index="575065" value="1"/>
  <variable name="Y(3616,9)" index="589253" value="1"/>
  <variable name="Y(3624,17)" index="590565" value="1"/>
  <variable name="Y(3631,24)" index="591713" value="1"/>
  <variable name="Y(3649,42)" index="594665" value="1"/>
  <variable name="Y(3653,46)" index="595321" value="1"/>
  <variable name="Y(3655,48)" index="595649" value="1"/>
  <variable name="Y(3663,56)" index="596961" value="1"/>
  <variable name="Y(3731,58)" index="608047" value="1"/>
  <variable name="Y(3807,81)" index="620458" value="1"/>
  <variable name="Y(3827,29)" index="623666" value="1"/>
  <variable name="Y(3928,78)" index="640178" value="1"/>
  <variable name="Y(3931,3)" index="640592" value="1"/>
  <variable name="X(1,76,40)" index="651061" value="1"/>
  <variable name="X(1,83,3528)" index="658543" value="1"/>
  <variable name="X(2,76,98)" index="659107" value="1"/>
  <variable name="X(2,84,3529)" index="666532" value="1"/>
  <variable name="X(3,76,156)" index="667153" value="1"/>
  <variable name="X(3,85,3931)" index="674922" value="1"/>
  <variable name="X(4,76,171)" index="675156" value="1"/>
  <variable name="X(4,86,1532)" index="680511" value="1"/>
  <variable name="X(5,77,188)" index="683161" value="1"/>
  <variable name="X(5,87,2786)" index="689753" value="1"/>
  <variable name="X(6,77,231)" index="691192" value="1"/>
  <variable name="X(6,88,3255)" index="698210" value="1"/>
  <variable name="X(7,76,255)" index="699204" value="1"/>
  <variable name="X(7,89,2723)" index="705666" value="1"/>
  <variable name="X(8,77,330)" index="707267" value="1"/>
  <variable name="X(8,90,2916)" index="713847" value="1"/>
  <variable name="X(9,77,389)" index="715314" value="1"/>
  <variable name="X(9,91,3616)" index="722535" value="1"/>
  <variable name="X(10,77,448)" index="723361" value="1"/>
  <variable name="X(10,92,2212)" index="729119" value="1"/>
  <variable name="X(11,77,491)" index="731392" value="1"/>
  <variable name="X(11,93,1178)" index="736073" value="1"/>
  <variable name="X(12,75,552)" index="739441" value="1"/>
  <variable name="X(12,94,3177)" index="746060" value="1"/>
  <variable name="X(13,77,568)" index="747445" value="1"/>
  <variable name="X(13,95,2112)" index="752983" value="1"/>
  <variable name="X(14,77,610)" index="755475" value="1"/>
  <variable name="X(14,96,2050)" index="760909" value="1"/>
  <variable name="X(15,77,619)" index="763472" value="1"/>
  <variable name="X(15,97,2657)" index="769504" value="1"/>
  <variable name="X(16,77,655)" index="771496" value="1"/>
  <variable name="X(16,98,2858)" index="777693" value="1"/>
  <variable name="X(17,77,712)" index="779541" value="1"/>
  <variable name="X(17,99,3624)" index="786447" value="1"/>
  <variable name="X(18,77,766)" index="787583" value="1"/>
  <variable name="X(18,100,3242)" index="794053" value="1"/>
  <variable name="X(19,77,827)" index="795632" value="1"/>
  <variable name="X(19,101,1032)" index="799831" value="1"/>
  <variable name="X(20,77,863)" index="803656" value="1"/>
  <variable name="X(20,102,3430)" index="810217" value="1"/>
  <variable name="X(21,77,923)" index="811704" value="1"/>
  <variable name="X(21,103,1085)" index="815860" value="1"/>
  <variable name="X(22,77,944)" index="819713" value="1"/>
  <variable name="X(22,104,1682)" index="824445" value="1"/>
  <variable name="X(23,77,1016)" index="827773" value="1"/>
  <variable name="X(23,105,2470)" index="833221" value="1"/>
  <variable name="X(24,77,1032)" index="835777" value="1"/>
  <variable name="X(24,106,3631)" index="842370" value="1"/>
  <variable name="X(25,77,1071)" index="843804" value="1"/>
  <variable name="X(25,107,1292)" index="848019" value="1"/>
  <variable name="X(26,77,1085)" index="851806" value="1"/>
  <variable name="X(26,108,188)" index="854903" value="1"/>
  <variable name="X(27,77,1130)" index="859839" value="1"/>
  <variable name="X(27,109,3382)" index="866085" value="1"/>
  <variable name="X(28,77,1178)" index="867875" value="1"/>
  <variable name="X(28,110,255)" index="870946" value="1"/>
  <variable name="X(29,75,1234)" index="875919" value="1"/>
  <variable name="X(29,111,3827)" index="882506" value="1"/>
  <variable name="X(30,77,1241)" index="883914" value="1"/>
  <variable name="X(30,112,1130)" index="887797" value="1"/>
  <variable name="X(31,77,1272)" index="891933" value="1"/>
  <variable name="X(31,113,944)" index="895599" value="1"/>
  <variable name="X(32,77,1292)" index="899941" value="1"/>
  <variable name="X(32,114,863)" index="903506" value="1"/>
  <variable name="X(33,77,1324)" index="907961" value="1"/>
  <variable name="X(33,115,2541)" index="913172" value="1"/>
  <variable name="X(34,77,1378)" index="916003" value="1"/>
  <variable name="X(34,116,1324)" index="919943" value="1"/>
  <variable name="X(35,40,3129)" index="925742" value="1"/>
  <variable name="X(35,77,1664)" index="928271" value="1"/>
  <variable name="X(35,117,491)" index="931092" value="1"/>
  <variable name="X(36,77,1509)" index="936104" value="1"/>
  <variable name="X(36,118,1964)" index="940553" value="1"/>
  <variable name="X(37,77,1530)" index="944113" value="1"/>
  <variable name="X(37,119,1751)" index="948328" value="1"/>
  <variable name="X(38,50,1532)" index="952103" value="1"/>
  <variable name="X(38,120,3485)" index="958050" value="1"/>
  <variable name="X(39,73,1653)" index="960212" value="1"/>
  <variable name="X(39,121,3059)" index="965612" value="1"/>
  <variable name="X(40,35,1664)" index="968211" value="1"/>
  <variable name="X(40,122,3129)" index="973670" value="1"/>
  <variable name="X(41,45,1682)" index="976217" value="1"/>
  <variable name="X(41,123,3488)" index="982017" value="1"/>
  <variable name="X(42,77,1751)" index="984274" value="1"/>
  <variable name="X(42,124,3649)" index="990166" value="1"/>
  <variable name="X(43,77,1819)" index="992330" value="1"/>
  <variable name="X(43,125,1378)" index="995883" value="1"/>
  <variable name="X(44,77,1874)" index="1000373" value="1"/>
  <variable name="X(44,126,2611)" index="1005104" value="1"/>
  <variable name="X(45,41,3488)" index="1009975" value="1"/>
  <variable name="X(45,77,1682)" index="1012163" value="1"/>
  <variable name="X(45,127,1071)" index="1015546" value="1"/>
  <variable name="X(46,77,1964)" index="1020433" value="1"/>
  <variable name="X(46,128,3653)" index="1026116" value="1"/>
  <variable name="X(47,77,2011)" index="1028468" value="1"/>
  <variable name="X(47,129,923)" index="1031374" value="1"/>
  <variable name="X(48,77,2050)" index="1036495" value="1"/>
  <variable name="X(48,130,3655)" index="1042094" value="1"/>
  <variable name="X(49,77,2112)" index="1044545" value="1"/>
  <variable name="X(49,131,2011)" index="1048438" value="1"/>
  <variable name="X(50,38,3485)" index="1053906" value="1"/>
  <variable name="X(50,77,1532)" index="1055947" value="1"/>
  <variable name="X(50,132,330)" index="1058739" value="1"/>
  <variable name="X(51,77,2212)" index="1064615" value="1"/>
  <variable name="X(51,133,2429)" index="1068826" value="1"/>
  <variable name="X(52,75,2310)" index="1072701" value="1"/>
  <variable name="X(52,134,2714)" index="1077099" value="1"/>
  <variable name="X(53,77,2377)" index="1080756" value="1"/>
  <variable name="X(53,135,448)" index="1082821" value="1"/>
  <variable name="X(54,77,2429)" index="1088796" value="1"/>
  <variable name="X(54,136,1272)" index="1091633" value="1"/>
  <variable name="X(55,77,2470)" index="1096825" value="1"/>
  <variable name="X(55,137,389)" index="1098738" value="1"/>
  <variable name="X(56,77,2541)" index="1104884" value="1"/>
  <variable name="X(56,138,3663)" index="1110000" value="1"/>
  <variable name="X(57,77,2611)" index="1112942" value="1"/>
  <variable name="X(57,139,1509)" index="1115834" value="1"/>
  <variable name="X(58,75,2645)" index="1120964" value="1"/>
  <variable name="X(58,140,3731)" index="1126044" value="1"/>
  <variable name="X(59,75,2657)" index="1128964" value="1"/>
  <variable name="X(59,141,2310)" index="1132611" value="1"/>
  <variable name="X(60,77,2714)" index="1137009" value="1"/>
  <variable name="X(60,142,2377)" index="1140666" value="1"/>
  <variable name="X(61,75,2723)" index="1145006" value="1"/>
  <variable name="X(61,143,552)" index="1146829" value="1"/>
  <variable name="X(62,77,2786)" index="1153057" value="1"/>
  <variable name="X(62,144,1874)" index="1156139" value="1"/>
  <variable name="X(63,77,2858)" index="1161117" value="1"/>
  <variable name="X(63,145,766)" index="1163019" value="1"/>
  <variable name="X(64,77,2916)" index="1169163" value="1"/>
  <variable name="X(64,146,3015)" index="1173256" value="1"/>
  <variable name="X(65,77,3015)" index="1177250" value="1"/>
  <variable name="X(65,147,3151)" index="1181380" value="1"/>
  <variable name="X(66,77,3059)" index="1185282" value="1"/>
  <variable name="X(66,148,827)" index="1187044" value="1"/>
  <variable name="X(67,77,3151)" index="1193362" value="1"/>
  <variable name="X(67,149,1819)" index="1196024" value="1"/>
  <variable name="X(68,75,3177)" index="1201376" value="1"/>
  <variable name="X(68,150,1234)" index="1203427" value="1"/>
  <variable name="X(69,77,3242)" index="1209429" value="1"/>
  <variable name="X(69,151,655)" index="1210836" value="1"/>
  <variable name="X(70,77,3255)" index="1217430" value="1"/>
  <variable name="X(70,152,610)" index="1218779" value="1"/>
  <variable name="X(71,76,3295)" index="1225458" value="1"/>
  <variable name="X(71,153,3352)" index="1229509" value="1"/>
  <variable name="X(72,76,3352)" index="1233503" value="1"/>
  <variable name="X(72,154,156)" index="1234301" value="1"/>
  <variable name="X(73,39,3059)" index="1241198" value="1"/>
  <variable name="X(73,77,3382)" index="1245515" value="1"/>
  <variable name="X(73,155,1653)" index="1247780" value="1"/>
  <variable name="X(74,77,3430)" index="1253551" value="1"/>
  <variable name="X(74,156,1016)" index="1255131" value="1"/>
  <variable name="X(75,12,3177)" index="1261286" value="1"/>
  <variable name="X(75,29,3827)" index="1265930" value="1"/>
  <variable name="X(75,52,2714)" index="1268811" value="1"/>
  <variable name="X(75,58,3731)" index="1273822" value="1"/>
  <variable name="X(75,59,2310)" index="1276395" value="1"/>
  <variable name="X(75,61,552)" index="1278631" value="1"/>
  <variable name="X(75,68,1234)" index="1283307" value="1"/>
  <variable name="X(75,76,2723)" index="1288790" value="1"/>
  <variable name="X(75,77,2657)" index="1292718" value="1"/>
  <variable name="X(75,78,3928)" index="1297983" value="1"/>
  <variable name="X(75,80,98)" index="1298147" value="1"/>
  <variable name="X(75,81,3807)" index="1305850" value="1"/>
  <variable name="X(75,157,2645)" index="1308682" value="1"/>
  <variable name="X(76,1,3528)" index="1313559" value="1"/>
  <variable name="X(76,2,3529)" index="1317554" value="1"/>
  <variable name="X(76,3,3931)" index="1321950" value="1"/>
  <variable name="X(76,4,1532)" index="1323545" value="1"/>
  <variable name="X(76,7,2723)" index="1328730" value="1"/>
  <variable name="X(76,71,3352)" index="1333353" value="1"/>
  <variable name="X(76,72,156)" index="1334151" value="1"/>
  <variable name="X(76,75,98)" index="1338087" value="1"/>
  <variable name="X(76,77,255)" index="1342238" value="1"/>
  <variable name="X(76,82,40)" index="1346017" value="1"/>
  <variable name="X(76,158,3295)" index="1353266" value="1"/>
  <variable name="X(77,5,2786)" index="1356751" value="1"/>
  <variable name="X(77,6,3255)" index="1361214" value="1"/>
  <variable name="X(77,8,2916)" index="1364869" value="1"/>
  <variable name="X(77,9,3616)" index="1369563" value="1"/>
  <variable name="X(77,10,2212)" index="1372153" value="1"/>
  <variable name="X(77,11,1178)" index="1375113" value="1"/>
  <variable name="X(77,13,2112)" index="1380041" value="1"/>
  <variable name="X(77,14,2050)" index="1383973" value="1"/>
  <variable name="X(77,15,2657)" index="1388574" value="1"/>
  <variable name="X(77,16,2858)" index="1392769" value="1"/>
  <variable name="X(77,17,3624)" index="1397529" value="1"/>
  <variable name="X(77,18,3242)" index="1401141" value="1"/>
  <variable name="X(77,19,1032)" index="1402925" value="1"/>
  <variable name="X(77,20,3430)" index="1409317" value="1"/>
  <variable name="X(77,21,1085)" index="1410966" value="1"/>
  <variable name="X(77,22,1682)" index="1415557" value="1"/>
  <variable name="X(77,23,2470)" index="1420339" value="1"/>
  <variable name="X(77,24,3631)" index="1425494" value="1"/>
  <variable name="X(77,25,1292)" index="1427149" value="1"/>
  <variable name="X(77,26,188)" index="1430039" value="1"/>
  <variable name="X(77,27,3382)" index="1437227" value="1"/>
  <variable name="X(77,28,255)" index="1438094" value="1"/>
  <variable name="X(77,30,1130)" index="1442963" value="1"/>
  <variable name="X(77,31,944)" index="1446771" value="1"/>
  <variable name="X(77,32,863)" index="1450684" value="1"/>
  <variable name="X(77,33,2541)" index="1456356" value="1"/>
  <variable name="X(77,34,1324)" index="1459133" value="1"/>
  <variable name="X(77,35,491)" index="1462294" value="1"/>
  <variable name="X(77,36,1964)" index="1467761" value="1"/>
  <variable name="X(77,37,1751)" index="1471542" value="1"/>
  <variable name="X(77,42,3649)" index="1477434" value="1"/>
  <variable name="X(77,43,1378)" index="1479157" value="1"/>
  <variable name="X(77,44,2611)" index="1484384" value="1"/>
  <variable name="X(77,45,1071)" index="1486838" value="1"/>
  <variable name="X(77,46,3653)" index="1493414" value="1"/>
  <variable name="X(77,47,923)" index="1494678" value="1"/>
  <variable name="X(77,48,3655)" index="1501404" value="1"/>
  <variable name="X(77,49,2011)" index="1503754" value="1"/>
  <variable name="X(77,50,330)" index="1506067" value="1"/>
  <variable name="X(77,51,2429)" index="1512160" value="1"/>
  <variable name="X(77,53,448)" index="1514173" value="1"/>
  <variable name="X(77,54,1272)" index="1518991" value="1"/>
  <variable name="X(77,55,389)" index="1522102" value="1"/>
  <variable name="X(77,56,3663)" index="1529370" value="1"/>
  <variable name="X(77,57,1509)" index="1531210" value="1"/>
  <variable name="X(77,60,2377)" index="1536072" value="1"/>
  <variable name="X(77,62,1874)" index="1539563" value="1"/>
  <variable name="X(77,63,766)" index="1542449" value="1"/>
  <variable name="X(77,64,3015)" index="1548692" value="1"/>
  <variable name="X(77,65,3151)" index="1552822" value="1"/>
  <variable name="X(77,66,827)" index="1554492" value="1"/>
  <variable name="X(77,67,1819)" index="1559478" value="1"/>
  <variable name="X(77,69,655)" index="1562308" value="1"/>
  <variable name="X(77,70,610)" index="1566257" value="1"/>
  <variable name="X(77,73,3059)" index="1572700" value="1"/>
  <variable name="X(77,74,1016)" index="1574651" value="1"/>
  <variable name="X(77,75,2714)" index="1580343" value="1"/>
  <variable name="X(77,76,1532)" index="1583155" value="1"/>
  <variable name="X(77,159,1530)" index="1587147" value="1"/>
  <variable name="X(78,75,3731)" index="1593342" value="1"/>
  <variable name="X(78,160,3928)" index="1597533" value="1"/>
  <variable name="X(79,75,3807)" index="1601406" value="1"/>
  <variable name="X(80,75,3827)" index="1605420" value="1"/>
  <variable name="X(80,162,98)" index="1605685" value="1"/>
  <variable name="X(81,75,3928)" index="1613509" value="1"/>
  <variable name="X(81,163,3807)" index="1617382" value="1"/>
  <variable name="X(82,76,3931)" index="1621500" value="1"/>
  <variable name="X(82,164,40)" index="1621603" value="1"/>
 </variables>
</CPLEXSolution>
